NAME   case0
ROWS
 N 	obj
 E 	C0
 E 	C1
 E 	C2
 E 	C3
 E 	C4
 E 	C5
 E 	C6
 E 	C7
COLUMNS
 X0 	obj 	1 	C1 	1 
 X0 	C2 	1
 X1 	obj 	3 	C1 	1 
 X1 	C4 	1
 X2 	obj 	1 	C1 	1 
 X2 	C6 	1
 X3 	obj 	2 	C5 	1
 X3	C2 	1
 X4 	obj 	1 	C7 	1
 X4 	C2 	1
 X5 	obj 	1 	C5 	1
 X5	C6 	1
 X6 	obj 	1 	C7 	1 
 X6 	C4 	1
RHS
 rhs C0 0
 rhs C1 1
 rhs C2 1
 rhs C3 0
 rhs C4 1
 rhs C5 1
 rhs C6 1
 rhs C7 1
BOUNDS
 BV bnd 	X0  
 BV bnd 	X1 
 BV bnd 	X2 
 BV bnd 	X3 
 BV bnd 	X4 
 BV bnd 	X5
 BV bnd         X6
ENDATA
